sat
(model 
  (define-fun A () Bool
    true)
  (define-fun D () Bool
    false)
  (define-fun B () Bool
    false)
  (define-fun E () Bool
    false)
  (define-fun C () Bool
    false)
)
